n_potions = 66;
alchemy = [1, 4, 3, 2, 5, 5, 2, 4, 4, 3, 4, 1, 3, 5, 2, 1, 4, 3, 1, 1, 5, 2, 5, 1, 4, 1, 4, 3, 4, 5, 2, 2, 1, 5, 1, 3, 3, 5, 2, 5, 4, 3, 3, 2, 3, 3, 4, 4, 2, 5, 5, 4, 5, 4, 1, 5, 1, 1, 5, 1, 1, 4, 2, 3, 5, 3];
n_days = 12;
min_potions = 5;
max_potions = 7;
min_alchemists = 5;
max_alchemists = 35;
prereqs = [|7,1
|8,2
|10,5
|11,5
|11,6
|13,8
|13,11
|14,3
|16,9
|17,10
|17,11
|18,10
|19,8
|19,11
|20,9
|23,17
|23,18
|24,13
|26,13
|26,23
|32,9
|33,27
|34,17
|35,9
|35,17
|35,18
|37,20
|37,35
|38,33
|41,9
|41,17
|43,20
|44,16
|46,37
|48,34
|48,35
|49,32
|50,43
|51,33
|53,47
|55,43
|55,38
|56,51
|57,39
|57,34
|58,28
|59,55
|61,55
|63,48
|65,59
|];
